MARKOV
382
2 2 2 2 2 2 2 2 2 2 2 2 2 2 2 2 2 2 2 2 2 2 2 2 2 2 2 2 2 2 2 2 2 2 2 2 2 2 2 2 2 2 2 2 2 2 2 2 2 2 2 2 2 2 2 2 2 2 2 2 2 2 2 2 2 2 2 2 2 2 2 2 2 2 2 2 2 2 2 2 2 2 2 2 2 2 2 2 2 2 2 2 2 2 2 2 2 2 2 2 2 2 2 2 2 2 2 2 2 2 2 2 2 2 2 2 2 2 2 2 2 2 2 2 2 2 2 2 2 2 2 2 2 2 2 2 2 2 2 2 2 2 2 2 2 2 2 2 2 2 2 2 2 2 2 2 2 2 2 2 2 2 2 2 2 2 2 2 2 2 2 2 2 2 2 2 2 2 2 2 2 2 2 2 2 2 2 2 2 2 2 2 2 2 2 2 2 2 2 2 2 2 2 2 2 2 2 2 2 2 2 2 2 2 2 2 2 2 2 2 2 2 2 2 2 2 2 2 2 2 2 2 2 2 2 2 2 2 2 2 2 2 2 2 2 2 2 2 2 2 2 2 2 2 2 2 2 2 2 2 2 2 2 2 2 2 2 2 2 2 2 2 2 2 2 2 2 2 2 2 2 2 2 2 2 2 2 2 2 2 2 2 2 2 2 2 2 2 2 2 2 2 2 2 2 2 2 2 2 2 2 2 2 2 2 2 2 2 2 2 2 2 2 2 2 2 2 2 2 2 2 2 2 2 2 2 2 2 2 2 2 2 2 2 2 2 2 2 2 2 2 2 2 2 2 2 2 2 2 2 2 2 2 2 2 2 2 2 2 2 2 2 2 2 2 2 2 2 2 2 2 2 
382
3 381 147 141 
3 380 46 381 
3 379 60 380 
3 378 168 379 
3 377 79 378 
3 376 27 377 
3 375 31 376 
3 374 189 375 
3 373 62 374 
3 372 180 373 
3 371 125 372 
3 370 103 371 
3 369 76 370 
3 368 24 369 
3 367 93 368 
3 366 85 367 
3 365 18 366 
3 364 142 365 
3 363 161 364 
3 362 174 363 
3 361 157 362 
3 360 133 361 
3 359 99 360 
3 358 173 359 
3 357 179 358 
3 356 164 357 
3 355 52 356 
3 354 170 355 
3 353 159 354 
3 352 65 353 
3 351 77 352 
3 350 68 351 
3 349 162 350 
3 348 59 349 
3 347 36 348 
3 346 10 347 
3 345 71 346 
3 344 97 345 
3 343 160 344 
3 342 72 343 
3 341 167 342 
3 340 135 341 
3 339 26 340 
3 338 49 339 
3 337 139 338 
3 336 74 337 
3 335 187 336 
3 334 57 335 
3 333 51 334 
3 332 151 333 
3 331 75 332 
3 330 32 331 
3 329 176 330 
3 328 105 329 
3 327 171 328 
3 326 54 327 
3 325 55 326 
3 324 112 325 
3 323 50 324 
3 322 64 323 
3 321 7 322 
3 320 94 321 
3 319 43 320 
3 318 42 319 
3 317 181 318 
3 316 156 317 
3 315 152 316 
3 314 129 315 
3 313 15 314 
3 312 40 313 
3 311 2 312 
3 310 130 311 
3 309 38 310 
3 308 96 309 
3 307 104 308 
3 306 48 307 
3 305 61 306 
3 304 134 305 
3 303 13 304 
3 302 66 303 
3 301 110 302 
3 300 83 301 
3 299 91 300 
3 298 154 299 
3 297 172 298 
3 296 143 297 
3 295 144 296 
3 294 58 295 
3 293 6 294 
3 292 116 293 
3 291 45 292 
3 290 39 291 
3 289 117 290 
3 288 114 289 
3 287 84 288 
3 286 80 287 
3 285 178 286 
3 284 70 285 
3 283 150 284 
3 282 127 283 
3 281 88 282 
3 280 92 281 
3 279 73 280 
3 278 37 279 
3 277 0 278 
3 276 124 277 
3 275 177 276 
3 274 28 275 
3 273 44 274 
3 272 25 273 
3 271 128 272 
3 270 175 271 
3 269 5 270 
3 268 30 269 
3 267 149 268 
3 266 183 267 
3 265 20 266 
3 264 163 265 
3 263 35 264 
3 262 4 263 
3 261 182 262 
3 260 113 261 
3 259 119 260 
3 258 63 259 
3 257 108 258 
3 256 140 257 
3 255 86 256 
3 254 165 255 
3 253 138 254 
3 252 169 253 
3 251 11 252 
3 250 47 251 
3 249 82 250 
3 248 184 249 
3 247 120 248 
3 246 22 247 
3 245 89 246 
3 244 155 245 
3 243 67 244 
3 242 106 243 
3 241 137 242 
3 240 126 241 
3 239 101 240 
3 238 98 239 
3 237 111 238 
3 236 87 237 
3 235 53 236 
3 234 185 235 
3 233 136 234 
3 232 166 233 
3 231 23 232 
3 230 146 231 
3 229 78 230 
3 228 158 229 
3 227 90 228 
3 226 109 227 
3 225 191 226 
3 224 145 225 
3 223 1 224 
3 222 16 223 
3 221 21 222 
3 220 19 221 
3 219 69 220 
3 218 132 219 
3 217 107 218 
3 216 131 217 
3 215 12 216 
3 214 123 215 
3 213 186 214 
3 212 153 213 
3 211 14 212 
3 210 121 211 
3 209 118 210 
3 208 100 209 
3 207 81 208 
3 206 188 207 
3 205 95 206 
3 204 56 205 
3 203 33 204 
3 202 29 203 
3 201 148 202 
3 200 9 201 
3 199 8 200 
3 198 3 199 
3 197 34 198 
3 196 17 197 
3 195 115 196 
3 194 122 195 
3 193 41 194 
3 192 102 193 
2 190 192 
1 88 
1 141 
1 73 
1 92 
1 0 
1 37 
1 147 
1 124 
1 177 
1 28 
1 44 
1 46 
1 25 
1 60 
1 175 
1 128 
1 168 
1 27 
1 79 
1 5 
1 30 
1 31 
1 149 
1 189 
1 183 
1 20 
1 163 
1 62 
1 35 
1 180 
1 125 
1 103 
1 182 
1 4 
1 113 
1 63 
1 119 
1 76 
1 108 
1 140 
1 24 
1 93 
1 85 
1 18 
1 142 
1 161 
1 86 
1 165 
1 138 
1 169 
1 174 
1 11 
1 157 
1 133 
1 47 
1 179 
1 173 
1 99 
1 164 
1 52 
1 82 
1 184 
1 120 
1 170 
1 65 
1 159 
1 89 
1 22 
1 77 
1 155 
1 67 
1 106 
1 137 
1 126 
1 68 
1 59 
1 162 
1 101 
1 98 
1 36 
1 53 
1 87 
1 111 
1 10 
1 185 
1 136 
1 166 
1 71 
1 97 
1 23 
1 160 
1 146 
1 78 
1 158 
1 90 
1 109 
1 191 
1 72 
1 145 
1 167 
1 26 
1 135 
1 1 
1 49 
1 187 
1 74 
1 139 
1 16 
1 57 
1 21 
1 19 
1 51 
1 69 
1 151 
1 75 
1 32 
1 132 
1 176 
1 107 
1 105 
1 171 
1 54 
1 55 
1 131 
1 112 
1 12 
1 50 
1 64 
1 7 
1 94 
1 186 
1 123 
1 43 
1 42 
1 181 
1 153 
1 156 
1 14 
1 152 
1 121 
1 118 
1 100 
1 129 
1 15 
1 40 
1 2 
1 130 
1 38 
1 96 
1 104 
1 48 
1 61 
1 188 
1 81 
1 134 
1 13 
1 66 
1 95 
1 56 
1 33 
1 110 
1 83 
1 91 
1 154 
1 29 
1 172 
1 148 
1 143 
1 144 
1 58 
1 9 
1 8 
1 6 
1 3 
1 116 
1 45 
1 34 
1 39 
1 117 
1 114 
1 84 
1 178 
1 80 
1 17 
1 115 
1 122 
1 70 
1 150 
1 127 
1 41 
1 102 

8
1.00000000000000 0.90000000000000 0.00000000000000 0.00000000000000 0.00000000000000 0.10000000000000 1.00000000000000 1.00000000000000 
8
1.00000000000000 0.00000000000000 0.20000000000000 0.00000000000000 0.00000000000000 1.00000000000000 0.80000000000000 1.00000000000000 
8
1.00000000000000 0.00000000000000 0.40000000000000 0.00000000000000 0.00000000000000 1.00000000000000 0.60000000000000 1.00000000000000 
8
1.00000000000000 0.00000000000000 0.50000000000000 0.00000000000000 0.00000000000000 1.00000000000000 0.50000000000000 1.00000000000000 
8
1.00000000000000 0.00000000000000 0.00000000000000 0.00000000000000 0.00000000000000 1.00000000000000 1.00000000000000 1.00000000000000 
8
1.00000000000000 0.00000000000000 0.90000000000000 0.00000000000000 0.00000000000000 1.00000000000000 0.10000000000000 1.00000000000000 
8
1.00000000000000 0.00000000000000 0.50000000000000 0.00000000000000 0.00000000000000 1.00000000000000 0.50000000000000 1.00000000000000 
8
1.00000000000000 0.00000000000000 0.89000000000000 0.00000000000000 0.00000000000000 1.00000000000000 0.11000000000000 1.00000000000000 
8
1.00000000000000 0.00000000000000 0.50000000000000 0.00000000000000 0.00000000000000 1.00000000000000 0.50000000000000 1.00000000000000 
8
1.00000000000000 0.00000000000000 0.00000000000000 0.00000000000000 0.00000000000000 1.00000000000000 1.00000000000000 1.00000000000000 
8
1.00000000000000 0.00000000000000 0.89000000000000 0.00000000000000 0.00000000000000 1.00000000000000 0.11000000000000 1.00000000000000 
8
1.00000000000000 0.00000000000000 0.50000000000000 0.00000000000000 0.00000000000000 1.00000000000000 0.50000000000000 1.00000000000000 
8
1.00000000000000 0.00000000000000 0.20000000000000 0.00000000000000 0.00000000000000 1.00000000000000 0.80000000000000 1.00000000000000 
8
1.00000000000000 0.00000000000000 0.40000000000000 0.00000000000000 0.00000000000000 1.00000000000000 0.60000000000000 1.00000000000000 
8
1.00000000000000 0.00000000000000 0.10000000000000 0.00000000000000 0.00000000000000 1.00000000000000 0.90000000000000 1.00000000000000 
8
1.00000000000000 0.00000000000000 0.50000000000000 0.00000000000000 0.00000000000000 1.00000000000000 0.50000000000000 1.00000000000000 
8
1.00000000000000 0.00000000000000 0.50000000000000 0.00000000000000 0.00000000000000 1.00000000000000 0.50000000000000 1.00000000000000 
8
1.00000000000000 0.00000000000000 0.10000000000000 0.00000000000000 0.00000000000000 1.00000000000000 0.90000000000000 1.00000000000000 
8
1.00000000000000 0.00000000000000 0.00000000000000 0.00000000000000 0.00000000000000 1.00000000000000 1.00000000000000 1.00000000000000 
8
1.00000000000000 0.00000000000000 0.50000000000000 0.00000000000000 0.00000000000000 1.00000000000000 0.50000000000000 1.00000000000000 
8
1.00000000000000 0.00000000000000 0.01000000000000 0.00000000000000 0.00000000000000 1.00000000000000 0.99000000000000 1.00000000000000 
8
1.00000000000000 0.00000000000000 0.00000000000000 0.00000000000000 0.00000000000000 1.00000000000000 1.00000000000000 1.00000000000000 
8
1.00000000000000 0.00000000000000 0.00000000000000 0.00000000000000 0.00000000000000 1.00000000000000 1.00000000000000 1.00000000000000 
8
1.00000000000000 0.00000000000000 0.00000000000000 0.00000000000000 0.00000000000000 1.00000000000000 1.00000000000000 1.00000000000000 
8
1.00000000000000 0.00000000000000 0.00000000000000 0.00000000000000 0.00000000000000 1.00000000000000 1.00000000000000 1.00000000000000 
8
1.00000000000000 0.00000000000000 0.50000000000000 0.00000000000000 0.00000000000000 1.00000000000000 0.50000000000000 1.00000000000000 
8
1.00000000000000 0.00000000000000 0.90000000000000 0.00000000000000 0.00000000000000 1.00000000000000 0.10000000000000 1.00000000000000 
8
1.00000000000000 0.00000000000000 0.50000000000000 0.00000000000000 0.00000000000000 1.00000000000000 0.50000000000000 1.00000000000000 
8
1.00000000000000 0.00000000000000 0.00000000000000 0.00000000000000 0.00000000000000 1.00000000000000 1.00000000000000 1.00000000000000 
8
1.00000000000000 0.00000000000000 0.50000000000000 0.00000000000000 0.00000000000000 1.00000000000000 0.50000000000000 1.00000000000000 
8
1.00000000000000 0.00000000000000 0.90000000000000 0.00000000000000 0.00000000000000 1.00000000000000 0.10000000000000 1.00000000000000 
8
1.00000000000000 0.00000000000000 0.50000000000000 0.00000000000000 0.00000000000000 1.00000000000000 0.50000000000000 1.00000000000000 
8
1.00000000000000 0.00000000000000 0.10000000000000 0.00000000000000 0.00000000000000 1.00000000000000 0.90000000000000 1.00000000000000 
8
1.00000000000000 0.00000000000000 0.00000000000000 0.00000000000000 0.00000000000000 1.00000000000000 1.00000000000000 1.00000000000000 
8
1.00000000000000 0.00000000000000 0.10000000000000 0.00000000000000 0.00000000000000 1.00000000000000 0.90000000000000 1.00000000000000 
8
1.00000000000000 0.00000000000000 0.50000000000000 0.00000000000000 0.00000000000000 1.00000000000000 0.50000000000000 1.00000000000000 
8
1.00000000000000 0.00000000000000 0.90000000000000 0.00000000000000 0.00000000000000 1.00000000000000 0.10000000000000 1.00000000000000 
8
1.00000000000000 0.00000000000000 0.50000000000000 0.00000000000000 0.00000000000000 1.00000000000000 0.50000000000000 1.00000000000000 
8
1.00000000000000 0.00000000000000 0.50000000000000 0.00000000000000 0.00000000000000 1.00000000000000 0.50000000000000 1.00000000000000 
8
1.00000000000000 0.00000000000000 0.90000000000000 0.00000000000000 0.00000000000000 1.00000000000000 0.10000000000000 1.00000000000000 
8
1.00000000000000 0.00000000000000 0.09000000000000 0.00000000000000 0.00000000000000 1.00000000000000 0.91000000000000 1.00000000000000 
8
1.00000000000000 0.00000000000000 0.50000000000000 0.00000000000000 0.00000000000000 1.00000000000000 0.50000000000000 1.00000000000000 
8
1.00000000000000 0.00000000000000 0.10000000000000 0.00000000000000 0.00000000000000 1.00000000000000 0.90000000000000 1.00000000000000 
8
1.00000000000000 0.00000000000000 0.50000000000000 0.00000000000000 0.00000000000000 1.00000000000000 0.50000000000000 1.00000000000000 
8
1.00000000000000 0.00000000000000 0.50000000000000 0.00000000000000 0.00000000000000 1.00000000000000 0.50000000000000 1.00000000000000 
8
1.00000000000000 0.00000000000000 0.90000000000000 0.00000000000000 0.00000000000000 1.00000000000000 0.10000000000000 1.00000000000000 
8
1.00000000000000 0.00000000000000 0.09000000000000 0.00000000000000 0.00000000000000 1.00000000000000 0.91000000000000 1.00000000000000 
8
1.00000000000000 0.00000000000000 0.50000000000000 0.00000000000000 0.00000000000000 1.00000000000000 0.50000000000000 1.00000000000000 
8
1.00000000000000 0.00000000000000 0.50000000000000 0.00000000000000 0.00000000000000 1.00000000000000 0.50000000000000 1.00000000000000 
8
1.00000000000000 0.00000000000000 0.00000000000000 0.00000000000000 0.00000000000000 1.00000000000000 1.00000000000000 1.00000000000000 
8
1.00000000000000 0.00000000000000 0.00000000000000 0.00000000000000 0.00000000000000 1.00000000000000 1.00000000000000 1.00000000000000 
8
1.00000000000000 0.00000000000000 0.50000000000000 0.00000000000000 0.00000000000000 1.00000000000000 0.50000000000000 1.00000000000000 
8
1.00000000000000 0.00000000000000 0.00000000000000 0.00000000000000 0.00000000000000 1.00000000000000 1.00000000000000 1.00000000000000 
8
1.00000000000000 0.00000000000000 0.50000000000000 0.00000000000000 0.00000000000000 1.00000000000000 0.50000000000000 1.00000000000000 
8
1.00000000000000 0.00000000000000 0.10000000000000 0.00000000000000 0.00000000000000 1.00000000000000 0.90000000000000 1.00000000000000 
8
1.00000000000000 0.00000000000000 0.50000000000000 0.00000000000000 0.00000000000000 1.00000000000000 0.50000000000000 1.00000000000000 
8
1.00000000000000 0.00000000000000 0.57000000000000 0.00000000000000 0.00000000000000 1.00000000000000 0.43000000000000 1.00000000000000 
8
1.00000000000000 0.00000000000000 0.00000000000000 0.00000000000000 0.00000000000000 1.00000000000000 1.00000000000000 1.00000000000000 
8
1.00000000000000 0.00000000000000 0.00000000000000 0.00000000000000 0.00000000000000 1.00000000000000 1.00000000000000 1.00000000000000 
8
1.00000000000000 0.00000000000000 0.00000000000000 0.00000000000000 0.00000000000000 1.00000000000000 1.00000000000000 1.00000000000000 
8
1.00000000000000 0.00000000000000 0.50000000000000 0.00000000000000 0.00000000000000 1.00000000000000 0.50000000000000 1.00000000000000 
8
1.00000000000000 0.00000000000000 0.50000000000000 0.00000000000000 0.00000000000000 1.00000000000000 0.50000000000000 1.00000000000000 
8
1.00000000000000 0.00000000000000 0.90000000000000 0.00000000000000 0.00000000000000 1.00000000000000 0.10000000000000 1.00000000000000 
8
1.00000000000000 0.00000000000000 0.00000000000000 0.00000000000000 0.00000000000000 1.00000000000000 1.00000000000000 1.00000000000000 
8
1.00000000000000 0.00000000000000 0.50000000000000 0.00000000000000 0.00000000000000 1.00000000000000 0.50000000000000 1.00000000000000 
8
1.00000000000000 0.00000000000000 0.10000000000000 0.00000000000000 0.00000000000000 1.00000000000000 0.90000000000000 1.00000000000000 
8
1.00000000000000 0.00000000000000 0.50000000000000 0.00000000000000 0.00000000000000 1.00000000000000 0.50000000000000 1.00000000000000 
8
1.00000000000000 0.00000000000000 0.10000000000000 0.00000000000000 0.00000000000000 1.00000000000000 0.90000000000000 1.00000000000000 
8
1.00000000000000 0.00000000000000 0.50000000000000 0.00000000000000 0.00000000000000 1.00000000000000 0.50000000000000 1.00000000000000 
8
1.00000000000000 0.00000000000000 0.40000000000000 0.00000000000000 0.00000000000000 1.00000000000000 0.60000000000000 1.00000000000000 
8
1.00000000000000 0.00000000000000 0.50000000000000 0.00000000000000 0.00000000000000 1.00000000000000 0.50000000000000 1.00000000000000 
8
1.00000000000000 0.00000000000000 0.00000000000000 0.00000000000000 0.00000000000000 1.00000000000000 1.00000000000000 1.00000000000000 
8
1.00000000000000 0.00000000000000 0.50000000000000 0.00000000000000 0.00000000000000 1.00000000000000 0.50000000000000 1.00000000000000 
8
1.00000000000000 0.00000000000000 0.90000000000000 0.00000000000000 0.00000000000000 1.00000000000000 0.10000000000000 1.00000000000000 
8
1.00000000000000 0.00000000000000 0.00000000000000 0.00000000000000 0.00000000000000 1.00000000000000 1.00000000000000 1.00000000000000 
8
1.00000000000000 0.00000000000000 0.50000000000000 0.00000000000000 0.00000000000000 1.00000000000000 0.50000000000000 1.00000000000000 
8
1.00000000000000 0.00000000000000 0.00000000000000 0.00000000000000 0.00000000000000 1.00000000000000 1.00000000000000 1.00000000000000 
8
1.00000000000000 0.00000000000000 0.89000000000000 0.00000000000000 0.00000000000000 1.00000000000000 0.11000000000000 1.00000000000000 
8
1.00000000000000 0.00000000000000 0.50000000000000 0.00000000000000 0.00000000000000 1.00000000000000 0.50000000000000 1.00000000000000 
8
1.00000000000000 0.00000000000000 0.50000000000000 0.00000000000000 0.00000000000000 1.00000000000000 0.50000000000000 1.00000000000000 
8
1.00000000000000 0.00000000000000 0.00000000000000 0.00000000000000 0.00000000000000 1.00000000000000 1.00000000000000 1.00000000000000 
8
1.00000000000000 0.00000000000000 0.50000000000000 0.00000000000000 0.00000000000000 1.00000000000000 0.50000000000000 1.00000000000000 
8
1.00000000000000 0.00000000000000 0.00000000000000 0.00000000000000 0.00000000000000 1.00000000000000 1.00000000000000 1.00000000000000 
8
1.00000000000000 0.00000000000000 0.40000000000000 0.00000000000000 0.00000000000000 1.00000000000000 0.60000000000000 1.00000000000000 
8
1.00000000000000 0.00000000000000 0.50000000000000 0.00000000000000 0.00000000000000 1.00000000000000 0.50000000000000 1.00000000000000 
8
1.00000000000000 0.00000000000000 0.00000000000000 0.00000000000000 0.00000000000000 1.00000000000000 1.00000000000000 1.00000000000000 
8
1.00000000000000 0.00000000000000 0.00000000000000 0.00000000000000 0.00000000000000 1.00000000000000 1.00000000000000 1.00000000000000 
8
1.00000000000000 0.00000000000000 0.10000000000000 0.00000000000000 0.00000000000000 1.00000000000000 0.90000000000000 1.00000000000000 
8
1.00000000000000 0.00000000000000 0.60000000000000 0.00000000000000 0.00000000000000 1.00000000000000 0.40000000000000 1.00000000000000 
8
1.00000000000000 0.00000000000000 0.50000000000000 0.00000000000000 0.00000000000000 1.00000000000000 0.50000000000000 1.00000000000000 
8
1.00000000000000 0.00000000000000 0.10000000000000 0.00000000000000 0.00000000000000 1.00000000000000 0.90000000000000 1.00000000000000 
8
1.00000000000000 0.00000000000000 0.40000000000000 0.00000000000000 0.00000000000000 1.00000000000000 0.60000000000000 1.00000000000000 
8
1.00000000000000 0.00000000000000 0.00000000000000 0.00000000000000 0.00000000000000 1.00000000000000 1.00000000000000 1.00000000000000 
8
1.00000000000000 0.00000000000000 0.50000000000000 0.00000000000000 0.00000000000000 1.00000000000000 0.50000000000000 1.00000000000000 
8
1.00000000000000 0.00000000000000 0.00000000000000 0.00000000000000 0.00000000000000 1.00000000000000 1.00000000000000 1.00000000000000 
8
1.00000000000000 0.00000000000000 0.00000000000000 0.00000000000000 0.00000000000000 1.00000000000000 1.00000000000000 1.00000000000000 
8
1.00000000000000 0.00000000000000 0.10000000000000 0.00000000000000 0.00000000000000 1.00000000000000 0.90000000000000 1.00000000000000 
8
1.00000000000000 0.00000000000000 0.59000000000000 0.00000000000000 0.00000000000000 1.00000000000000 0.41000000000000 1.00000000000000 
8
1.00000000000000 0.00000000000000 0.00000000000000 0.00000000000000 0.00000000000000 1.00000000000000 1.00000000000000 1.00000000000000 
8
1.00000000000000 0.00000000000000 0.40000000000000 0.00000000000000 0.00000000000000 1.00000000000000 0.60000000000000 1.00000000000000 
8
1.00000000000000 0.00000000000000 0.00000000000000 0.00000000000000 0.00000000000000 1.00000000000000 1.00000000000000 1.00000000000000 
8
1.00000000000000 0.00000000000000 0.50000000000000 0.00000000000000 0.00000000000000 1.00000000000000 0.50000000000000 1.00000000000000 
8
1.00000000000000 0.00000000000000 0.90000000000000 0.00000000000000 0.00000000000000 1.00000000000000 0.10000000000000 1.00000000000000 
8
1.00000000000000 0.00000000000000 0.50000000000000 0.00000000000000 0.00000000000000 1.00000000000000 0.50000000000000 1.00000000000000 
8
1.00000000000000 0.00000000000000 0.00000000000000 0.00000000000000 0.00000000000000 1.00000000000000 1.00000000000000 1.00000000000000 
8
1.00000000000000 0.00000000000000 0.00000000000000 0.00000000000000 0.00000000000000 1.00000000000000 1.00000000000000 1.00000000000000 
8
1.00000000000000 0.00000000000000 0.90000000000000 0.00000000000000 0.00000000000000 1.00000000000000 0.10000000000000 1.00000000000000 
8
1.00000000000000 0.00000000000000 0.60000000000000 0.00000000000000 0.00000000000000 1.00000000000000 0.40000000000000 1.00000000000000 
8
1.00000000000000 0.00000000000000 0.40000000000000 0.00000000000000 0.00000000000000 1.00000000000000 0.60000000000000 1.00000000000000 
8
1.00000000000000 0.00000000000000 0.50000000000000 0.00000000000000 0.00000000000000 1.00000000000000 0.50000000000000 1.00000000000000 
8
1.00000000000000 0.00000000000000 0.10000000000000 0.00000000000000 0.00000000000000 1.00000000000000 0.90000000000000 1.00000000000000 
8
1.00000000000000 0.00000000000000 0.40000000000000 0.00000000000000 0.00000000000000 1.00000000000000 0.60000000000000 1.00000000000000 
8
1.00000000000000 0.00000000000000 0.00000000000000 0.00000000000000 0.00000000000000 1.00000000000000 1.00000000000000 1.00000000000000 
8
1.00000000000000 0.00000000000000 0.00000000000000 0.00000000000000 0.00000000000000 1.00000000000000 1.00000000000000 1.00000000000000 
8
1.00000000000000 0.00000000000000 0.50000000000000 0.00000000000000 0.00000000000000 1.00000000000000 0.50000000000000 1.00000000000000 
8
1.00000000000000 0.00000000000000 0.09000000000000 0.00000000000000 0.00000000000000 1.00000000000000 0.91000000000000 1.00000000000000 
8
1.00000000000000 0.00000000000000 0.00000000000000 0.00000000000000 0.00000000000000 1.00000000000000 1.00000000000000 1.00000000000000 
8
1.00000000000000 0.00000000000000 0.00000000000000 0.00000000000000 0.00000000000000 1.00000000000000 1.00000000000000 1.00000000000000 
8
1.00000000000000 0.00000000000000 0.50000000000000 0.00000000000000 0.00000000000000 1.00000000000000 0.50000000000000 1.00000000000000 
8
1.00000000000000 0.00000000000000 0.00000000000000 0.00000000000000 0.00000000000000 1.00000000000000 1.00000000000000 1.00000000000000 
8
1.00000000000000 0.00000000000000 0.00000000000000 0.00000000000000 0.00000000000000 1.00000000000000 1.00000000000000 1.00000000000000 
8
1.00000000000000 0.00000000000000 0.89000000000000 0.00000000000000 0.00000000000000 1.00000000000000 0.11000000000000 1.00000000000000 
8
1.00000000000000 0.00000000000000 0.00000000000000 0.00000000000000 0.00000000000000 1.00000000000000 1.00000000000000 1.00000000000000 
8
1.00000000000000 0.00000000000000 0.00000000000000 0.00000000000000 0.00000000000000 1.00000000000000 1.00000000000000 1.00000000000000 
8
1.00000000000000 0.00000000000000 0.00000000000000 0.00000000000000 0.00000000000000 1.00000000000000 1.00000000000000 1.00000000000000 
8
1.00000000000000 0.00000000000000 0.50000000000000 0.00000000000000 0.00000000000000 1.00000000000000 0.50000000000000 1.00000000000000 
8
1.00000000000000 0.00000000000000 0.50000000000000 0.00000000000000 0.00000000000000 1.00000000000000 0.50000000000000 1.00000000000000 
8
1.00000000000000 0.00000000000000 0.50000000000000 0.00000000000000 0.00000000000000 1.00000000000000 0.50000000000000 1.00000000000000 
8
1.00000000000000 0.00000000000000 0.50000000000000 0.00000000000000 0.00000000000000 1.00000000000000 0.50000000000000 1.00000000000000 
8
1.00000000000000 0.00000000000000 0.50000000000000 0.00000000000000 0.00000000000000 1.00000000000000 0.50000000000000 1.00000000000000 
8
1.00000000000000 0.00000000000000 0.00000000000000 0.00000000000000 0.00000000000000 1.00000000000000 1.00000000000000 1.00000000000000 
8
1.00000000000000 0.00000000000000 0.50000000000000 0.00000000000000 0.00000000000000 1.00000000000000 0.50000000000000 1.00000000000000 
8
1.00000000000000 0.00000000000000 0.40000000000000 0.00000000000000 0.00000000000000 1.00000000000000 0.60000000000000 1.00000000000000 
8
1.00000000000000 0.00000000000000 0.70000000000000 0.00000000000000 0.00000000000000 1.00000000000000 0.30000000000000 1.00000000000000 
8
1.00000000000000 0.00000000000000 0.50000000000000 0.00000000000000 0.00000000000000 1.00000000000000 0.50000000000000 1.00000000000000 
8
1.00000000000000 0.00000000000000 0.89000000000000 0.00000000000000 0.00000000000000 1.00000000000000 0.11000000000000 1.00000000000000 
8
1.00000000000000 0.00000000000000 0.50000000000000 0.00000000000000 0.00000000000000 1.00000000000000 0.50000000000000 1.00000000000000 
8
1.00000000000000 0.00000000000000 0.90000000000000 0.00000000000000 0.00000000000000 1.00000000000000 0.10000000000000 1.00000000000000 
8
1.00000000000000 0.00000000000000 0.00000000000000 0.00000000000000 0.00000000000000 1.00000000000000 1.00000000000000 1.00000000000000 
8
1.00000000000000 0.00000000000000 0.90000000000000 0.00000000000000 0.00000000000000 1.00000000000000 0.10000000000000 1.00000000000000 
8
1.00000000000000 0.00000000000000 0.50000000000000 0.00000000000000 0.00000000000000 1.00000000000000 0.50000000000000 1.00000000000000 
8
1.00000000000000 0.00000000000000 0.50000000000000 0.00000000000000 0.00000000000000 1.00000000000000 0.50000000000000 1.00000000000000 
8
1.00000000000000 0.00000000000000 0.00000000000000 0.00000000000000 0.00000000000000 1.00000000000000 1.00000000000000 1.00000000000000 
8
1.00000000000000 0.00000000000000 0.75000000000000 0.00000000000000 0.00000000000000 1.00000000000000 0.25000000000000 1.00000000000000 
8
1.00000000000000 0.00000000000000 0.00000000000000 0.00000000000000 0.00000000000000 1.00000000000000 1.00000000000000 1.00000000000000 
8
1.00000000000000 0.00000000000000 0.09000000000000 0.00000000000000 0.00000000000000 1.00000000000000 0.91000000000000 1.00000000000000 
8
1.00000000000000 0.00000000000000 0.50000000000000 0.00000000000000 0.00000000000000 1.00000000000000 0.50000000000000 1.00000000000000 
8
1.00000000000000 0.00000000000000 0.00000000000000 0.00000000000000 0.00000000000000 1.00000000000000 1.00000000000000 1.00000000000000 
8
1.00000000000000 0.00000000000000 0.50000000000000 0.00000000000000 0.00000000000000 1.00000000000000 0.50000000000000 1.00000000000000 
8
1.00000000000000 0.00000000000000 0.00000000000000 0.00000000000000 0.00000000000000 1.00000000000000 1.00000000000000 1.00000000000000 
8
1.00000000000000 0.00000000000000 0.00000000000000 0.00000000000000 0.00000000000000 1.00000000000000 1.00000000000000 1.00000000000000 
8
1.00000000000000 0.00000000000000 0.90000000000000 0.00000000000000 0.00000000000000 1.00000000000000 0.10000000000000 1.00000000000000 
8
1.00000000000000 0.00000000000000 0.70000000000000 0.00000000000000 0.00000000000000 1.00000000000000 0.30000000000000 1.00000000000000 
8
1.00000000000000 0.00000000000000 0.40000000000000 0.00000000000000 0.00000000000000 1.00000000000000 0.60000000000000 1.00000000000000 
8
1.00000000000000 0.00000000000000 0.10000000000000 0.00000000000000 0.00000000000000 1.00000000000000 0.90000000000000 1.00000000000000 
8
1.00000000000000 0.00000000000000 0.00000000000000 0.00000000000000 0.00000000000000 1.00000000000000 1.00000000000000 1.00000000000000 
8
1.00000000000000 0.00000000000000 0.60000000000000 0.00000000000000 0.00000000000000 1.00000000000000 0.40000000000000 1.00000000000000 
8
1.00000000000000 0.00000000000000 0.50000000000000 0.00000000000000 0.00000000000000 1.00000000000000 0.50000000000000 1.00000000000000 
8
1.00000000000000 0.00000000000000 0.40000000000000 0.00000000000000 0.00000000000000 1.00000000000000 0.60000000000000 1.00000000000000 
8
1.00000000000000 0.00000000000000 0.90000000000000 0.00000000000000 0.00000000000000 1.00000000000000 0.10000000000000 1.00000000000000 
8
1.00000000000000 0.00000000000000 0.50000000000000 0.00000000000000 0.00000000000000 1.00000000000000 0.50000000000000 1.00000000000000 
8
1.00000000000000 0.00000000000000 0.90000000000000 0.00000000000000 0.00000000000000 1.00000000000000 0.10000000000000 1.00000000000000 
8
1.00000000000000 0.00000000000000 0.00000000000000 0.00000000000000 0.00000000000000 1.00000000000000 1.00000000000000 1.00000000000000 
8
1.00000000000000 0.00000000000000 0.00000000000000 0.00000000000000 0.00000000000000 1.00000000000000 1.00000000000000 1.00000000000000 
8
1.00000000000000 0.00000000000000 0.00000000000000 0.00000000000000 0.00000000000000 1.00000000000000 1.00000000000000 1.00000000000000 
8
1.00000000000000 0.00000000000000 0.00000000000000 0.00000000000000 0.00000000000000 1.00000000000000 1.00000000000000 1.00000000000000 
8
1.00000000000000 0.00000000000000 0.09000000000000 0.00000000000000 0.00000000000000 1.00000000000000 0.91000000000000 1.00000000000000 
8
1.00000000000000 0.00000000000000 0.00000000000000 0.00000000000000 0.00000000000000 1.00000000000000 1.00000000000000 1.00000000000000 
8
1.00000000000000 0.00000000000000 0.90000000000000 0.00000000000000 0.00000000000000 1.00000000000000 0.10000000000000 1.00000000000000 
8
1.00000000000000 0.00000000000000 0.50000000000000 0.00000000000000 0.00000000000000 1.00000000000000 0.50000000000000 1.00000000000000 
8
1.00000000000000 0.00000000000000 0.00000000000000 0.00000000000000 0.00000000000000 1.00000000000000 1.00000000000000 1.00000000000000 
8
1.00000000000000 0.00000000000000 0.00000000000000 0.00000000000000 0.00000000000000 1.00000000000000 1.00000000000000 1.00000000000000 
8
1.00000000000000 0.00000000000000 0.00000000000000 0.00000000000000 0.00000000000000 1.00000000000000 1.00000000000000 1.00000000000000 
8
1.00000000000000 0.00000000000000 0.90000000000000 0.00000000000000 0.00000000000000 1.00000000000000 0.10000000000000 1.00000000000000 
8
1.00000000000000 0.00000000000000 0.00000000000000 0.00000000000000 0.00000000000000 1.00000000000000 1.00000000000000 1.00000000000000 
8
1.00000000000000 0.00000000000000 0.90000000000000 0.00000000000000 0.00000000000000 1.00000000000000 0.10000000000000 1.00000000000000 
8
1.00000000000000 0.00000000000000 0.00000000000000 0.00000000000000 0.00000000000000 1.00000000000000 1.00000000000000 1.00000000000000 
8
1.00000000000000 0.00000000000000 0.05000000000000 0.00000000000000 0.00000000000000 1.00000000000000 0.95000000000000 1.00000000000000 
8
1.00000000000000 0.00000000000000 0.50000000000000 0.00000000000000 0.00000000000000 1.00000000000000 0.50000000000000 1.00000000000000 
8
1.00000000000000 0.00000000000000 0.50000000000000 0.00000000000000 0.00000000000000 1.00000000000000 0.50000000000000 1.00000000000000 
8
1.00000000000000 0.00000000000000 0.00000000000000 0.00000000000000 0.00000000000000 1.00000000000000 1.00000000000000 1.00000000000000 
8
1.00000000000000 0.00000000000000 0.50000000000000 0.00000000000000 0.00000000000000 1.00000000000000 0.50000000000000 1.00000000000000 
8
1.00000000000000 0.00000000000000 0.00000000000000 0.00000000000000 0.00000000000000 1.00000000000000 1.00000000000000 1.00000000000000 
8
1.00000000000000 0.00000000000000 0.10000000000000 0.00000000000000 0.00000000000000 1.00000000000000 0.90000000000000 1.00000000000000 
8
1.00000000000000 0.00000000000000 0.00000000000000 0.00000000000000 0.00000000000000 1.00000000000000 1.00000000000000 1.00000000000000 
8
1.00000000000000 0.00000000000000 0.50000000000000 0.00000000000000 0.00000000000000 1.00000000000000 0.50000000000000 1.00000000000000 
8
1.00000000000000 0.00000000000000 0.00000000000000 0.00000000000000 0.00000000000000 1.00000000000000 1.00000000000000 1.00000000000000 
8
1.00000000000000 0.00000000000000 0.00000000000000 0.00000000000000 0.00000000000000 1.00000000000000 1.00000000000000 1.00000000000000 
8
1.00000000000000 0.00000000000000 0.90000000000000 0.00000000000000 0.00000000000000 1.00000000000000 0.10000000000000 1.00000000000000 
8
1.00000000000000 0.00000000000000 0.01000000000000 0.00000000000000 0.00000000000000 1.00000000000000 0.99000000000000 1.00000000000000 
4
0.97000000000000 0.00000000000000 0.03000000000000 1.00000000000000 
2
0.99990000000000 0.00010000000000 
2
0.99950000000000 0.00050000000000 
2
0.99985000000000 0.00015000000000 
2
0.99996000000000 0.00004000000000 
2
0.99990000000000 0.00010000000000 
2
0.99990000000000 0.00010000000000 
2
0.99995000000000 0.00005000000000 
2
0.99990000000000 0.00010000000000 
2
0.99997709000000 0.00002291000000 
2
0.99960000000000 0.00040000000000 
2
0.99800000000000 0.00200000000000 
2
0.99999000000000 0.00001000000000 
2
0.99989000000000 0.00011000000000 
2
0.99990000000000 0.00010000000000 
2
0.99990000000000 0.00010000000000 
2
0.99995000000000 0.00005000000000 
2
0.99999000000000 0.00001000000000 
2
0.99975000000000 0.00025000000000 
2
0.99980000000000 0.00020000000000 
2
0.99900000000000 0.00100000000000 
2
0.99975000000000 0.00025000000000 
2
0.99999000000000 0.00001000000000 
2
0.99960000000000 0.00040000000000 
2
0.99995000000000 0.00005000000000 
2
0.99995000000000 0.00005000000000 
2
0.99850000000000 0.00150000000000 
2
0.99987000000000 0.00013000000000 
2
0.99999000000000 0.00001000000000 
2
0.99950000000000 0.00050000000000 
2
0.99990000000000 0.00010000000000 
2
0.99990000000000 0.00010000000000 
2
0.99975000000000 0.00025000000000 
2
0.99995000000000 0.00005000000000 
2
0.99995000000000 0.00005000000000 
2
0.99999000000000 0.00001000000000 
2
0.99998000000000 0.00002000000000 
2
0.99990000000000 0.00010000000000 
2
0.99995000000000 0.00005000000000 
2
0.99990000000000 0.00010000000000 
2
0.99999988000000 0.00000012000000 
2
0.99990000000000 0.00010000000000 
2
0.99999900000000 0.00000100000000 
2
0.99989000000000 0.00011000000000 
2
0.99990000000000 0.00010000000000 
2
0.99990000000000 0.00010000000000 
2
0.99990000000000 0.00010000000000 
2
0.99995000000000 0.00005000000000 
2
0.99990000000000 0.00010000000000 
2
0.99998000000000 0.00002000000000 
2
0.99999000000000 0.00001000000000 
2
0.99998000000000 0.00002000000000 
2
0.99990000000000 0.00010000000000 
2
0.99999000000000 0.00001000000000 
2
0.99990000000000 0.00010000000000 
2
0.99990000000000 0.00010000000000 
2
0.99999000000000 0.00001000000000 
2
0.99800000000000 0.00200000000000 
2
0.99995000000000 0.00005000000000 
2
0.99974000000000 0.00026000000000 
2
0.99999800000000 0.00000200000000 
2
0.99999600000000 0.00000400000000 
2
0.99999984000000 0.00000016000000 
2
0.99990000000000 0.00010000000000 
2
0.99989000000000 0.00011000000000 
2
0.99990000000000 0.00010000000000 
2
0.99995000000000 0.00005000000000 
2
0.99990000000000 0.00010000000000 
2
0.99990000000000 0.00010000000000 
2
0.99996000000000 0.00004000000000 
2
0.99990668000000 0.00009332000000 
2
0.99990000000000 0.00010000000000 
2
0.99940000000000 0.00060000000000 
2
0.99990000000000 0.00010000000000 
2
0.99996880000000 0.00003120000000 
2
0.99981000000000 0.00019000000000 
2
0.99998000000000 0.00002000000000 
2
0.99990000000000 0.00010000000000 
2
0.99995000000000 0.00005000000000 
2
0.99999200000000 0.00000800000000 
2
0.99990000000000 0.00010000000000 
2
0.99990000000000 0.00010000000000 
2
0.99975000000000 0.00025000000000 
2
0.99990000000000 0.00010000000000 
2
0.99990000000000 0.00010000000000 
2
0.99882000000000 0.00118000000000 
2
0.99999000000000 0.00001000000000 
2
0.99990000000000 0.00010000000000 
2
0.99992000000000 0.00008000000000 
2
0.99990000000000 0.00010000000000 
2
0.99990000000000 0.00010000000000 
2
0.99999000000000 0.00001000000000 
2
0.99999000000000 0.00001000000000 
2
0.99980000000000 0.00020000000000 
2
0.99990000000000 0.00010000000000 
2
0.99990000000000 0.00010000000000 
2
0.99990000000000 0.00010000000000 
2
0.99900000000000 0.00100000000000 
2
0.99960000000000 0.00040000000000 
2
0.99950000000000 0.00050000000000 
2
0.99996000000000 0.00004000000000 
2
0.99990000000000 0.00010000000000 
2
0.99995000000000 0.00005000000000 
2
0.99991000000000 0.00009000000000 
2
0.99950000000000 0.00050000000000 
2
0.99995000000000 0.00005000000000 
2
0.99997300000000 0.00002700000000 
2
0.99999000000000 0.00001000000000 
2
0.99991000000000 0.00009000000000 
2
0.99999000000000 0.00001000000000 
2
0.99990000000000 0.00010000000000 
2
0.99990000000000 0.00010000000000 
2
0.99990000000000 0.00010000000000 
2
0.99995000000000 0.00005000000000 
2
0.99999000000000 0.00001000000000 
2
0.99990000000000 0.00010000000000 
2
0.99982000000000 0.00018000000000 
2
0.99997000000000 0.00003000000000 
2
0.99990000000000 0.00010000000000 
2
0.99850000000000 0.00150000000000 
2
0.99995000000000 0.00005000000000 
2
0.99990000000000 0.00010000000000 
2
0.99985000000000 0.00015000000000 
2
0.99990000000000 0.00010000000000 
2
0.99995000000000 0.00005000000000 
2
0.99960000000000 0.00040000000000 
2
0.99994000000000 0.00006000000000 
2
0.99998000000000 0.00002000000000 
2
0.99995000000000 0.00005000000000 
2
0.99999000000000 0.00001000000000 
2
0.99990000000000 0.00010000000000 
2
0.99980000000000 0.00020000000000 
2
0.99990000000000 0.00010000000000 
2
0.99980000000000 0.00020000000000 
2
0.99990000000000 0.00010000000000 
2
0.99950000000000 0.00050000000000 
2
0.99990000000000 0.00010000000000 
2
0.99999000000000 0.00001000000000 
2
0.99990000000000 0.00010000000000 
2
0.99950000000000 0.00050000000000 
2
0.99997000000000 0.00003000000000 
2
0.99997000000000 0.00003000000000 
2
0.99990000000000 0.00010000000000 
2
0.99980000000000 0.00020000000000 
2
0.99910000000000 0.00090000000000 
2
0.99980000000000 0.00020000000000 
2
0.99995000000000 0.00005000000000 
2
0.99980000000000 0.00020000000000 
2
0.99980000000000 0.00020000000000 
2
0.99940000000000 0.00060000000000 
2
0.99996000000000 0.00004000000000 
2
0.99999000000000 0.00001000000000 
2
0.99998000000000 0.00002000000000 
2
0.99950000000000 0.00050000000000 
2
0.99989000000000 0.00011000000000 
2
0.99990000000000 0.00010000000000 
2
0.99950000000000 0.00050000000000 
2
0.99990000000000 0.00010000000000 
2
0.99990000000000 0.00010000000000 
2
0.99960000000000 0.00040000000000 
2
0.99990000000000 0.00010000000000 
2
0.99998000000000 0.00002000000000 
2
0.99970000000000 0.00030000000000 
2
0.99998000000000 0.00002000000000 
2
0.99990000000000 0.00010000000000 
2
0.99997000000000 0.00003000000000 
2
0.99984000000000 0.00016000000000 
2
0.99990000000000 0.00010000000000 
2
0.99993000000000 0.00007000000000 
2
0.99989000000000 0.00011000000000 
2
0.99960000000000 0.00040000000000 
2
0.99999000000000 0.00001000000000 
2
0.99990000000000 0.00010000000000 
2
0.99997000000000 0.00003000000000 
2
0.99996000000000 0.00004000000000 
2
0.99900000000000 0.00100000000000 
2
0.99990000000000 0.00010000000000 
2
0.99990000000000 0.00010000000000 
2
0.99800000000000 0.00200000000000 
2
0.99990000000000 0.00010000000000 
2
0.99990000000000 0.00010000000000 
2
0.99990000000000 0.00010000000000 
2
0.99995000000000 0.00005000000000 
2
0.99998000000000 0.00002000000000 
2
0.99980000000000 0.00020000000000 
2
0.99997000000000 0.00003000000000 
2
0.99998000000000 0.00002000000000 
2
0.99950000000000 0.00050000000000 
2
0.99990000000000 0.00010000000000 
2
0.99820000000000 0.00180000000000 
2
0.99990000000000 0.00010000000000 
2
0.99993000000000 0.00007000000000 
